# Isinglecomm.dat: data for Isinglecomm.py

set Nodes := CityA CityB CityC CityD;

set Arcs :=
CityA CityB
CityA CityC
CityA CityD
CityB CityC
CityB CityD
CityC CityD
;

param : C :=
CityA CityB 32
CityA CityC 93
CityA CityD 65
CityB CityC 92
CityB CityD 81
CityC CityD 35
;